NAME : ClusterId_0 
COMMENT : (Gillet and Johnson) 
TYPE : CVRP 
DIMENSION : 22 
EDGE_WEIGHT_TYPE : EUC_2D 
CAPACITY : 500 
NODE_COORD_SECTION 
1 -33 33 
250 -14 44 
63 -12 42 
238 -13 38 
158 -17 49 
178 -16 36 
70 -18 34 
83 -20 51 
44 -7 52 
226 -11 60 
236 -19 59 
224 -5 54 
123 -1 49 
4 0 14 
242 -16 62 
119 -3 17 
164 -28 39 
225 -26 43 
124 -4 17 
12 -18 64 
147 1 34 
136 2 29 
DEMAND_SECTION 
1 1000
250 50
63 37
238 28
158 79
178 36
70 39
83 99
44 43
226 83
236 17
224 39
123 4
4 93
242 15
119 18
164 97
225 99
124 23
12 25
147 50
136 25
DEPOT_SECTION 
1
 -1
EOF